unsat
(:cnf-encoding-aux-vars 52
 :elim-unconstrained    3
 :max-memory            18.99
 :memory                18.67
 :nlsat-arith-var       12
 :nlsat-atoms           117
 :nlsat-bool-var        65
 :nlsat-clauses         325
 :nlsat-conflicts       10
 :nlsat-decisions       10
 :nlsat-propagations    41
 :num-allocs            197373
 :rlimit-count          50015
 :solve-eqs-elim-vars   64
 :solve-eqs-steps       245
 :time                  0.02
 :total-time            0.04)
